param set_len = 28;
param target_sum = 815076;
param values := [0] 38269 [1] 80602 [2] 49857 [3] 70388 [4] 10252 [5] 54344 [6] 100393 [7] 115070 [8] 30638 [9] 104751 [10] 115836 [11] 48038 [12] 21020 [13] 101429 [14] 73139 [15] 64562 [16] 99752 [17] 3639 [18] 15486 [19] 47941 [20] 107032 [21] 37947 [22] 96393 [23] 16061 [24] 2072 [25] 75338 [26] 101082 [27] 88295 ;
